[[10, 31, 58, 72, 39, 12, 40, 32, 9, 25, 55, 18, 50, 44, 3, 24, 49, 23, 56, 41, 43], [42, 64, 22, 62, 73, 33, 63, 16, 51, 6, 17, 26, 67, 76, 75, 68, 4, 45, 30, 2, 74, 28, 61, 21, 48, 47, 36, 69, 71, 60, 70], [20, 37, 5, 29, 15, 57, 13, 54, 27, 52, 34, 46, 8, 7, 35, 19, 53, 14, 59, 11, 66, 65, 38]]